p wcnf 1386 1383 5
5 -19 1 
5 -21 1 
5 -23 1 
5 -25 1 
5 -27 1 
5 -29 1 
5 -31 1 
5 -33 1 
5 -35 1 
5 -37 1 
5 -40 1 
5 -43 1 
5 -46 1 
5 -49 1 
5 -52 1 
5 -55 1 
5 -58 1 
5 -61 1 
5 -64 1 
5 -68 1 
5 -72 1 
5 -76 1 
5 -80 1 
5 -84 1 
5 -88 1 
5 -92 1 
5 -96 1 
5 -100 1 
5 -105 1 
5 -110 1 
5 -115 1 
5 -120 1 
5 -125 1 
5 -130 1 
5 -135 1 
5 -140 1 
5 -145 1 
5 -151 1 
5 -157 1 
5 -163 1 
5 -169 1 
5 -175 1 
5 -181 1 
5 -187 1 
5 -193 1 
5 -199 1 
5 -206 1 
5 -213 1 
5 -220 1 
5 -227 1 
5 -234 1 
5 -241 1 
5 -248 1 
5 -255 1 
5 -262 1 
5 -270 1 
5 -278 1 
5 -286 1 
5 -294 1 
5 -302 1 
5 -310 1 
5 -318 1 
5 -326 1 
5 -334 1 
5 -343 1 
5 -352 1 
5 -361 1 
5 -370 1 
5 -379 1 
5 -388 1 
5 -397 1 
5 -406 1 
5 -415 19 
5 -417 19 
5 -419 19 
5 -421 19 
5 -423 19 
5 -425 19 
5 -427 19 
5 -429 19 
5 -431 19 
5 -434 19 
5 -437 19 
5 -440 19 
5 -443 19 
5 -446 19 
5 -449 19 
5 -452 19 
5 -455 19 
5 -459 19 
5 -463 19 
5 -467 19 
5 -471 19 
5 -475 19 
5 -479 19 
5 -483 19 
5 -487 19 
5 -492 19 
5 -497 19 
5 -502 19 
5 -507 19 
5 -512 19 
5 -517 19 
5 -522 19 
5 -527 19 
5 -533 19 
5 -539 19 
5 -545 19 
5 -551 19 
5 -557 19 
5 -563 19 
5 -569 19 
5 -575 19 
5 -582 19 
5 -589 19 
5 -596 19 
5 -603 19 
5 -610 19 
5 -617 19 
5 -624 19 
5 -631 19 
5 -639 19 
5 -647 19 
5 -655 19 
5 -663 19 
5 -671 19 
5 -679 19 
5 -687 19 
5 -695 37 415 
5 -697 37 415 
5 -699 37 415 
5 -701 37 415 
5 -703 37 415 
5 -705 37 415 
5 -707 37 415 
5 -709 37 415 
5 -712 37 415 
5 -715 37 415 
5 -718 37 415 
5 -721 37 415 
5 -724 37 415 
5 -727 37 415 
5 -730 37 415 
5 -734 37 415 
5 -738 37 415 
5 -742 37 415 
5 -746 37 415 
5 -750 37 415 
5 -754 37 415 
5 -758 37 415 
5 -763 37 415 
5 -768 37 415 
5 -773 37 415 
5 -778 37 415 
5 -783 37 415 
5 -788 37 415 
5 -793 37 415 
5 -799 37 415 
5 -805 37 415 
5 -811 37 415 
5 -817 37 415 
5 -823 37 415 
5 -829 37 415 
5 -835 37 415 
5 -842 37 415 
5 -849 37 415 
5 -856 37 415 
5 -863 37 415 
5 -870 37 415 
5 -877 37 415 
5 -884 64 431 695 
5 -886 64 431 695 
5 -888 64 431 695 
5 -890 64 431 695 
5 -892 64 431 695 
5 -894 64 431 695 
5 -896 64 431 695 
5 -899 64 431 695 
5 -902 64 431 695 
5 -905 64 431 695 
5 -908 64 431 695 
5 -911 64 431 695 
5 -914 64 431 695 
5 -918 64 431 695 
5 -922 64 431 695 
5 -926 64 431 695 
5 -930 64 431 695 
5 -934 64 431 695 
5 -938 64 431 695 
5 -943 64 431 695 
5 -948 64 431 695 
5 -953 64 431 695 
5 -958 64 431 695 
5 -963 64 431 695 
5 -968 64 431 695 
5 -974 64 431 695 
5 -980 64 431 695 
5 -986 64 431 695 
5 -992 64 431 695 
5 -998 64 431 695 
5 -1004 100 455 709 884 
5 -1006 100 455 709 884 
5 -1008 100 455 709 884 
5 -1010 100 455 709 884 
5 -1012 100 455 709 884 
5 -1014 100 455 709 884 
5 -1017 100 455 709 884 
5 -1020 100 455 709 884 
5 -1023 100 455 709 884 
5 -1026 100 455 709 884 
5 -1029 100 455 709 884 
5 -1033 100 455 709 884 
5 -1037 100 455 709 884 
5 -1041 100 455 709 884 
5 -1045 100 455 709 884 
5 -1049 100 455 709 884 
5 -1054 100 455 709 884 
5 -1059 100 455 709 884 
5 -1064 100 455 709 884 
5 -1069 100 455 709 884 
5 -1074 145 487 730 896 1004 
5 -1076 145 487 730 896 1004 
5 -1078 145 487 730 896 1004 
5 -1080 145 487 730 896 1004 
5 -1082 145 487 730 896 1004 
5 -1085 145 487 730 896 1004 
5 -1088 145 487 730 896 1004 
5 -1091 145 487 730 896 1004 
5 -1094 145 487 730 896 1004 
5 -1098 145 487 730 896 1004 
5 -1102 145 487 730 896 1004 
5 -1106 145 487 730 896 1004 
5 -1110 199 527 758 914 1014 1074 
5 -1112 199 527 758 914 1014 1074 
5 -1114 199 527 758 914 1014 1074 
5 -1116 199 527 758 914 1014 1074 
5 -1119 199 527 758 914 1014 1074 
5 -1122 199 527 758 914 1014 1074 
5 -1125 262 575 793 938 1029 1082 1110 
5 -1127 262 575 793 938 1029 1082 1110 
5 -1129 1 
5 -1131 1 
5 -1133 1 
5 -1135 1 
5 -1137 1 
5 -1139 1 
5 -1141 1 
5 -1143 1 
5 -1145 1 
5 -1147 1 
5 -1150 1 
5 -1153 1 
5 -1156 1 
5 -1159 1 
5 -1162 1 
5 -1165 1 
5 -1168 1 
5 -1171 1 
5 -1174 1 
5 -1178 1 
5 -1182 1 
5 -1186 1 
5 -1190 1 
5 -1194 1 
5 -1198 1 
5 -1202 1 
5 -1206 1 
5 -1210 1 
5 -1215 1 
5 -1220 1 
5 -1225 1 
5 -1230 1 
5 -1235 1 
5 -1240 1 
5 -1245 1 
5 -1250 1 
5 -1255 1129 
5 -1257 1129 
5 -1259 1129 
5 -1261 1129 
5 -1263 1129 
5 -1265 1129 
5 -1267 1129 
5 -1269 1129 
5 -1271 1129 
5 -1274 1129 
5 -1277 1129 
5 -1280 1129 
5 -1283 1129 
5 -1286 1129 
5 -1289 1129 
5 -1292 1129 
5 -1295 1129 
5 -1299 1129 
5 -1303 1129 
5 -1307 1129 
5 -1311 1129 
5 -1315 1129 
5 -1319 1129 
5 -1323 1129 
5 -1327 1147 1255 
5 -1329 1147 1255 
5 -1331 1147 1255 
5 -1333 1147 1255 
5 -1335 1147 1255 
5 -1337 1147 1255 
5 -1339 1147 1255 
5 -1341 1147 1255 
5 -1344 1147 1255 
5 -1347 1147 1255 
5 -1350 1147 1255 
5 -1353 1147 1255 
5 -1356 1147 1255 
5 -1359 1147 1255 
5 -1362 1174 1271 1327 
5 -1364 1174 1271 1327 
5 -1366 1174 1271 1327 
5 -1368 1174 1271 1327 
5 -1370 1174 1271 1327 
5 -1372 1174 1271 1327 
5 -1374 334 343 352 361 370 379 388 397 406 631 639 647 655 663 671 679 687 835 842 849 856 863 870 877 968 974 980 986 992 998 1210 1295 1341 1362 
5 -1376 334 343 352 361 370 379 388 397 406 631 639 647 655 663 671 679 687 835 842 849 856 863 870 877 968 974 980 986 992 998 1210 1295 1341 1362 
5 -1378 334 343 352 361 370 379 388 397 406 631 639 647 655 663 671 679 687 835 842 849 856 863 870 877 968 974 980 986 992 998 1210 1295 1341 1362 
5 -1380 334 343 352 361 370 379 388 397 406 631 639 647 655 663 671 679 687 835 842 849 856 863 870 877 968 974 980 986 992 998 1210 1295 1341 1362 
5 -1382 334 343 352 361 370 379 388 397 406 631 639 647 655 663 671 679 687 835 842 849 856 863 870 877 968 974 980 986 992 998 1210 1295 1341 1362 
5 19 21 23 25 27 29 31 33 35 37 40 43 46 49 52 55 58 61 64 68 72 76 80 84 88 92 96 100 105 110 115 120 125 130 135 140 145 151 157 163 169 175 181 187 193 199 206 213 220 227 234 241 248 255 262 270 278 286 294 302 310 318 326 334 343 352 361 370 379 388 397 406 
5 19 21 23 25 27 29 31 33 35 37 40 43 46 49 52 55 58 61 64 68 72 76 80 84 88 92 96 100 105 110 115 120 125 130 135 140 145 151 157 163 169 175 181 187 193 199 206 213 220 227 234 241 248 255 262 270 278 286 294 302 310 318 326 334 343 352 361 370 379 388 397 406 415 417 419 421 423 425 427 429 431 434 437 440 443 446 449 452 455 459 463 467 471 475 479 483 487 492 497 502 507 512 517 522 527 533 539 545 551 557 563 569 575 582 589 596 603 610 617 624 631 639 647 655 663 671 679 687 
5 37 40 43 46 49 52 55 58 61 64 68 72 76 80 84 88 92 96 100 105 110 115 120 125 130 135 140 145 151 157 163 169 175 181 187 193 199 206 213 220 227 234 241 248 255 262 270 278 286 294 302 310 318 326 334 343 352 361 370 379 388 397 406 415 417 419 421 423 425 427 429 431 434 437 440 443 446 449 452 455 459 463 467 471 475 479 483 487 492 497 502 507 512 517 522 527 533 539 545 551 557 563 569 575 582 589 596 603 610 617 624 631 639 647 655 663 671 679 687 695 697 699 701 703 705 707 709 712 715 718 721 724 727 730 734 738 742 746 750 754 758 763 768 773 778 783 788 793 799 805 811 817 823 829 835 842 849 856 863 870 877 
5 64 68 72 76 80 84 88 92 96 100 105 110 115 120 125 130 135 140 145 151 157 163 169 175 181 187 193 199 206 213 220 227 234 241 248 255 262 270 278 286 294 302 310 318 326 334 343 352 361 370 379 388 397 406 431 434 437 440 443 446 449 452 455 459 463 467 471 475 479 483 487 492 497 502 507 512 517 522 527 533 539 545 551 557 563 569 575 582 589 596 603 610 617 624 631 639 647 655 663 671 679 687 695 697 699 701 703 705 707 709 712 715 718 721 724 727 730 734 738 742 746 750 754 758 763 768 773 778 783 788 793 799 805 811 817 823 829 835 842 849 856 863 870 877 884 886 888 890 892 894 896 899 902 905 908 911 914 918 922 926 930 934 938 943 948 953 958 963 968 974 980 986 992 998 
5 100 105 110 115 120 125 130 135 140 145 151 157 163 169 175 181 187 193 199 206 213 220 227 234 241 248 255 262 270 278 286 294 302 310 318 326 334 343 352 361 370 379 388 397 406 455 459 463 467 471 475 479 483 487 492 497 502 507 512 517 522 527 533 539 545 551 557 563 569 575 582 589 596 603 610 617 624 631 639 647 655 663 671 679 687 709 712 715 718 721 724 727 730 734 738 742 746 750 754 758 763 768 773 778 783 788 793 799 805 811 817 823 829 835 842 849 856 863 870 877 884 886 888 890 892 894 896 899 902 905 908 911 914 918 922 926 930 934 938 943 948 953 958 963 968 974 980 986 992 998 1004 1006 1008 1010 1012 1014 1017 1020 1023 1026 1029 1033 1037 1041 1045 1049 1054 1059 1064 1069 
5 145 151 157 163 169 175 181 187 193 199 206 213 220 227 234 241 248 255 262 270 278 286 294 302 310 318 326 334 343 352 361 370 379 388 397 406 487 492 497 502 507 512 517 522 527 533 539 545 551 557 563 569 575 582 589 596 603 610 617 624 631 639 647 655 663 671 679 687 730 734 738 742 746 750 754 758 763 768 773 778 783 788 793 799 805 811 817 823 829 835 842 849 856 863 870 877 896 899 902 905 908 911 914 918 922 926 930 934 938 943 948 953 958 963 968 974 980 986 992 998 1004 1006 1008 1010 1012 1014 1017 1020 1023 1026 1029 1033 1037 1041 1045 1049 1054 1059 1064 1069 1074 1076 1078 1080 1082 1085 1088 1091 1094 1098 1102 1106 
5 199 206 213 220 227 234 241 248 255 262 270 278 286 294 302 310 318 326 334 343 352 361 370 379 388 397 406 527 533 539 545 551 557 563 569 575 582 589 596 603 610 617 624 631 639 647 655 663 671 679 687 758 763 768 773 778 783 788 793 799 805 811 817 823 829 835 842 849 856 863 870 877 914 918 922 926 930 934 938 943 948 953 958 963 968 974 980 986 992 998 1014 1017 1020 1023 1026 1029 1033 1037 1041 1045 1049 1054 1059 1064 1069 1074 1076 1078 1080 1082 1085 1088 1091 1094 1098 1102 1106 1110 1112 1114 1116 1119 1122 
5 262 270 278 286 294 302 310 318 326 334 343 352 361 370 379 388 397 406 575 582 589 596 603 610 617 624 631 639 647 655 663 671 679 687 793 799 805 811 817 823 829 835 842 849 856 863 870 877 938 943 948 953 958 963 968 974 980 986 992 998 1029 1033 1037 1041 1045 1049 1054 1059 1064 1069 1082 1085 1088 1091 1094 1098 1102 1106 1110 1112 1114 1116 1119 1122 1125 1127 
5 1129 1131 1133 1135 1137 1139 1141 1143 1145 1147 1150 1153 1156 1159 1162 1165 1168 1171 1174 1178 1182 1186 1190 1194 1198 1202 1206 1210 1215 1220 1225 1230 1235 1240 1245 1250 
5 1129 1131 1133 1135 1137 1139 1141 1143 1145 1147 1150 1153 1156 1159 1162 1165 1168 1171 1174 1178 1182 1186 1190 1194 1198 1202 1206 1210 1215 1220 1225 1230 1235 1240 1245 1250 1255 1257 1259 1261 1263 1265 1267 1269 1271 1274 1277 1280 1283 1286 1289 1292 1295 1299 1303 1307 1311 1315 1319 1323 
5 1147 1150 1153 1156 1159 1162 1165 1168 1171 1174 1178 1182 1186 1190 1194 1198 1202 1206 1210 1215 1220 1225 1230 1235 1240 1245 1250 1255 1257 1259 1261 1263 1265 1267 1269 1271 1274 1277 1280 1283 1286 1289 1292 1295 1299 1303 1307 1311 1315 1319 1323 1327 1329 1331 1333 1335 1337 1339 1341 1344 1347 1350 1353 1356 1359 
5 1174 1178 1182 1186 1190 1194 1198 1202 1206 1210 1215 1220 1225 1230 1235 1240 1245 1250 1271 1274 1277 1280 1283 1286 1289 1292 1295 1299 1303 1307 1311 1315 1319 1323 1327 1329 1331 1333 1335 1337 1339 1341 1344 1347 1350 1353 1356 1359 1362 1364 1366 1368 1370 1372 
5 -1 2 
5 -3 4 
5 -5 6 
5 -7 8 
5 -9 10 
5 -11 12 
5 -13 14 
5 -15 16 
5 -17 18 
5 -19 20 
5 -21 22 
5 -23 24 
5 -25 26 
5 -27 28 
5 -29 30 
5 -31 32 
5 -33 34 
5 -35 36 
5 -37 38 
5 -37 39 
5 -40 41 
5 -40 42 
5 -43 44 
5 -43 45 
5 -46 47 
5 -46 48 
5 -49 50 
5 -49 51 
5 -52 53 
5 -52 54 
5 -55 56 
5 -55 57 
5 -58 59 
5 -58 60 
5 -61 62 
5 -61 63 
5 -64 65 
5 -64 66 
5 -64 67 
5 -68 69 
5 -68 70 
5 -68 71 
5 -72 73 
5 -72 74 
5 -72 75 
5 -76 77 
5 -76 78 
5 -76 79 
5 -80 81 
5 -80 82 
5 -80 83 
5 -84 85 
5 -84 86 
5 -84 87 
5 -88 89 
5 -88 90 
5 -88 91 
5 -92 93 
5 -92 94 
5 -92 95 
5 -96 97 
5 -96 98 
5 -96 99 
5 -100 101 
5 -100 102 
5 -100 103 
5 -100 104 
5 -105 106 
5 -105 107 
5 -105 108 
5 -105 109 
5 -110 111 
5 -110 112 
5 -110 113 
5 -110 114 
5 -115 116 
5 -115 117 
5 -115 118 
5 -115 119 
5 -120 121 
5 -120 122 
5 -120 123 
5 -120 124 
5 -125 126 
5 -125 127 
5 -125 128 
5 -125 129 
5 -130 131 
5 -130 132 
5 -130 133 
5 -130 134 
5 -135 136 
5 -135 137 
5 -135 138 
5 -135 139 
5 -140 141 
5 -140 142 
5 -140 143 
5 -140 144 
5 -145 146 
5 -145 147 
5 -145 148 
5 -145 149 
5 -145 150 
5 -151 152 
5 -151 153 
5 -151 154 
5 -151 155 
5 -151 156 
5 -157 158 
5 -157 159 
5 -157 160 
5 -157 161 
5 -157 162 
5 -163 164 
5 -163 165 
5 -163 166 
5 -163 167 
5 -163 168 
5 -169 170 
5 -169 171 
5 -169 172 
5 -169 173 
5 -169 174 
5 -175 176 
5 -175 177 
5 -175 178 
5 -175 179 
5 -175 180 
5 -181 182 
5 -181 183 
5 -181 184 
5 -181 185 
5 -181 186 
5 -187 188 
5 -187 189 
5 -187 190 
5 -187 191 
5 -187 192 
5 -193 194 
5 -193 195 
5 -193 196 
5 -193 197 
5 -193 198 
5 -199 200 
5 -199 201 
5 -199 202 
5 -199 203 
5 -199 204 
5 -199 205 
5 -206 207 
5 -206 208 
5 -206 209 
5 -206 210 
5 -206 211 
5 -206 212 
5 -213 214 
5 -213 215 
5 -213 216 
5 -213 217 
5 -213 218 
5 -213 219 
5 -220 221 
5 -220 222 
5 -220 223 
5 -220 224 
5 -220 225 
5 -220 226 
5 -227 228 
5 -227 229 
5 -227 230 
5 -227 231 
5 -227 232 
5 -227 233 
5 -234 235 
5 -234 236 
5 -234 237 
5 -234 238 
5 -234 239 
5 -234 240 
5 -241 242 
5 -241 243 
5 -241 244 
5 -241 245 
5 -241 246 
5 -241 247 
5 -248 249 
5 -248 250 
5 -248 251 
5 -248 252 
5 -248 253 
5 -248 254 
5 -255 256 
5 -255 257 
5 -255 258 
5 -255 259 
5 -255 260 
5 -255 261 
5 -262 263 
5 -262 264 
5 -262 265 
5 -262 266 
5 -262 267 
5 -262 268 
5 -262 269 
5 -270 271 
5 -270 272 
5 -270 273 
5 -270 274 
5 -270 275 
5 -270 276 
5 -270 277 
5 -278 279 
5 -278 280 
5 -278 281 
5 -278 282 
5 -278 283 
5 -278 284 
5 -278 285 
5 -286 287 
5 -286 288 
5 -286 289 
5 -286 290 
5 -286 291 
5 -286 292 
5 -286 293 
5 -294 295 
5 -294 296 
5 -294 297 
5 -294 298 
5 -294 299 
5 -294 300 
5 -294 301 
5 -302 303 
5 -302 304 
5 -302 305 
5 -302 306 
5 -302 307 
5 -302 308 
5 -302 309 
5 -310 311 
5 -310 312 
5 -310 313 
5 -310 314 
5 -310 315 
5 -310 316 
5 -310 317 
5 -318 319 
5 -318 320 
5 -318 321 
5 -318 322 
5 -318 323 
5 -318 324 
5 -318 325 
5 -326 327 
5 -326 328 
5 -326 329 
5 -326 330 
5 -326 331 
5 -326 332 
5 -326 333 
5 -334 335 
5 -334 336 
5 -334 337 
5 -334 338 
5 -334 339 
5 -334 340 
5 -334 341 
5 -334 342 
5 -343 344 
5 -343 345 
5 -343 346 
5 -343 347 
5 -343 348 
5 -343 349 
5 -343 350 
5 -343 351 
5 -352 353 
5 -352 354 
5 -352 355 
5 -352 356 
5 -352 357 
5 -352 358 
5 -352 359 
5 -352 360 
5 -361 362 
5 -361 363 
5 -361 364 
5 -361 365 
5 -361 366 
5 -361 367 
5 -361 368 
5 -361 369 
5 -370 371 
5 -370 372 
5 -370 373 
5 -370 374 
5 -370 375 
5 -370 376 
5 -370 377 
5 -370 378 
5 -379 380 
5 -379 381 
5 -379 382 
5 -379 383 
5 -379 384 
5 -379 385 
5 -379 386 
5 -379 387 
5 -388 389 
5 -388 390 
5 -388 391 
5 -388 392 
5 -388 393 
5 -388 394 
5 -388 395 
5 -388 396 
5 -397 398 
5 -397 399 
5 -397 400 
5 -397 401 
5 -397 402 
5 -397 403 
5 -397 404 
5 -397 405 
5 -406 407 
5 -406 408 
5 -406 409 
5 -406 410 
5 -406 411 
5 -406 412 
5 -406 413 
5 -406 414 
5 -415 416 
5 -417 418 
5 -419 420 
5 -421 422 
5 -423 424 
5 -425 426 
5 -427 428 
5 -429 430 
5 -431 432 
5 -431 433 
5 -434 435 
5 -434 436 
5 -437 438 
5 -437 439 
5 -440 441 
5 -440 442 
5 -443 444 
5 -443 445 
5 -446 447 
5 -446 448 
5 -449 450 
5 -449 451 
5 -452 453 
5 -452 454 
5 -455 456 
5 -455 457 
5 -455 458 
5 -459 460 
5 -459 461 
5 -459 462 
5 -463 464 
5 -463 465 
5 -463 466 
5 -467 468 
5 -467 469 
5 -467 470 
5 -471 472 
5 -471 473 
5 -471 474 
5 -475 476 
5 -475 477 
5 -475 478 
5 -479 480 
5 -479 481 
5 -479 482 
5 -483 484 
5 -483 485 
5 -483 486 
5 -487 488 
5 -487 489 
5 -487 490 
5 -487 491 
5 -492 493 
5 -492 494 
5 -492 495 
5 -492 496 
5 -497 498 
5 -497 499 
5 -497 500 
5 -497 501 
5 -502 503 
5 -502 504 
5 -502 505 
5 -502 506 
5 -507 508 
5 -507 509 
5 -507 510 
5 -507 511 
5 -512 513 
5 -512 514 
5 -512 515 
5 -512 516 
5 -517 518 
5 -517 519 
5 -517 520 
5 -517 521 
5 -522 523 
5 -522 524 
5 -522 525 
5 -522 526 
5 -527 528 
5 -527 529 
5 -527 530 
5 -527 531 
5 -527 532 
5 -533 534 
5 -533 535 
5 -533 536 
5 -533 537 
5 -533 538 
5 -539 540 
5 -539 541 
5 -539 542 
5 -539 543 
5 -539 544 
5 -545 546 
5 -545 547 
5 -545 548 
5 -545 549 
5 -545 550 
5 -551 552 
5 -551 553 
5 -551 554 
5 -551 555 
5 -551 556 
5 -557 558 
5 -557 559 
5 -557 560 
5 -557 561 
5 -557 562 
5 -563 564 
5 -563 565 
5 -563 566 
5 -563 567 
5 -563 568 
5 -569 570 
5 -569 571 
5 -569 572 
5 -569 573 
5 -569 574 
5 -575 576 
5 -575 577 
5 -575 578 
5 -575 579 
5 -575 580 
5 -575 581 
5 -582 583 
5 -582 584 
5 -582 585 
5 -582 586 
5 -582 587 
5 -582 588 
5 -589 590 
5 -589 591 
5 -589 592 
5 -589 593 
5 -589 594 
5 -589 595 
5 -596 597 
5 -596 598 
5 -596 599 
5 -596 600 
5 -596 601 
5 -596 602 
5 -603 604 
5 -603 605 
5 -603 606 
5 -603 607 
5 -603 608 
5 -603 609 
5 -610 611 
5 -610 612 
5 -610 613 
5 -610 614 
5 -610 615 
5 -610 616 
5 -617 618 
5 -617 619 
5 -617 620 
5 -617 621 
5 -617 622 
5 -617 623 
5 -624 625 
5 -624 626 
5 -624 627 
5 -624 628 
5 -624 629 
5 -624 630 
5 -631 632 
5 -631 633 
5 -631 634 
5 -631 635 
5 -631 636 
5 -631 637 
5 -631 638 
5 -639 640 
5 -639 641 
5 -639 642 
5 -639 643 
5 -639 644 
5 -639 645 
5 -639 646 
5 -647 648 
5 -647 649 
5 -647 650 
5 -647 651 
5 -647 652 
5 -647 653 
5 -647 654 
5 -655 656 
5 -655 657 
5 -655 658 
5 -655 659 
5 -655 660 
5 -655 661 
5 -655 662 
5 -663 664 
5 -663 665 
5 -663 666 
5 -663 667 
5 -663 668 
5 -663 669 
5 -663 670 
5 -671 672 
5 -671 673 
5 -671 674 
5 -671 675 
5 -671 676 
5 -671 677 
5 -671 678 
5 -679 680 
5 -679 681 
5 -679 682 
5 -679 683 
5 -679 684 
5 -679 685 
5 -679 686 
5 -687 688 
5 -687 689 
5 -687 690 
5 -687 691 
5 -687 692 
5 -687 693 
5 -687 694 
5 -695 696 
5 -697 698 
5 -699 700 
5 -701 702 
5 -703 704 
5 -705 706 
5 -707 708 
5 -709 710 
5 -709 711 
5 -712 713 
5 -712 714 
5 -715 716 
5 -715 717 
5 -718 719 
5 -718 720 
5 -721 722 
5 -721 723 
5 -724 725 
5 -724 726 
5 -727 728 
5 -727 729 
5 -730 731 
5 -730 732 
5 -730 733 
5 -734 735 
5 -734 736 
5 -734 737 
5 -738 739 
5 -738 740 
5 -738 741 
5 -742 743 
5 -742 744 
5 -742 745 
5 -746 747 
5 -746 748 
5 -746 749 
5 -750 751 
5 -750 752 
5 -750 753 
5 -754 755 
5 -754 756 
5 -754 757 
5 -758 759 
5 -758 760 
5 -758 761 
5 -758 762 
5 -763 764 
5 -763 765 
5 -763 766 
5 -763 767 
5 -768 769 
5 -768 770 
5 -768 771 
5 -768 772 
5 -773 774 
5 -773 775 
5 -773 776 
5 -773 777 
5 -778 779 
5 -778 780 
5 -778 781 
5 -778 782 
5 -783 784 
5 -783 785 
5 -783 786 
5 -783 787 
5 -788 789 
5 -788 790 
5 -788 791 
5 -788 792 
5 -793 794 
5 -793 795 
5 -793 796 
5 -793 797 
5 -793 798 
5 -799 800 
5 -799 801 
5 -799 802 
5 -799 803 
5 -799 804 
5 -805 806 
5 -805 807 
5 -805 808 
5 -805 809 
5 -805 810 
5 -811 812 
5 -811 813 
5 -811 814 
5 -811 815 
5 -811 816 
5 -817 818 
5 -817 819 
5 -817 820 
5 -817 821 
5 -817 822 
5 -823 824 
5 -823 825 
5 -823 826 
5 -823 827 
5 -823 828 
5 -829 830 
5 -829 831 
5 -829 832 
5 -829 833 
5 -829 834 
5 -835 836 
5 -835 837 
5 -835 838 
5 -835 839 
5 -835 840 
5 -835 841 
5 -842 843 
5 -842 844 
5 -842 845 
5 -842 846 
5 -842 847 
5 -842 848 
5 -849 850 
5 -849 851 
5 -849 852 
5 -849 853 
5 -849 854 
5 -849 855 
5 -856 857 
5 -856 858 
5 -856 859 
5 -856 860 
5 -856 861 
5 -856 862 
5 -863 864 
5 -863 865 
5 -863 866 
5 -863 867 
5 -863 868 
5 -863 869 
5 -870 871 
5 -870 872 
5 -870 873 
5 -870 874 
5 -870 875 
5 -870 876 
5 -877 878 
5 -877 879 
5 -877 880 
5 -877 881 
5 -877 882 
5 -877 883 
5 -884 885 
5 -886 887 
5 -888 889 
5 -890 891 
5 -892 893 
5 -894 895 
5 -896 897 
5 -896 898 
5 -899 900 
5 -899 901 
5 -902 903 
5 -902 904 
5 -905 906 
5 -905 907 
5 -908 909 
5 -908 910 
5 -911 912 
5 -911 913 
5 -914 915 
5 -914 916 
5 -914 917 
5 -918 919 
5 -918 920 
5 -918 921 
5 -922 923 
5 -922 924 
5 -922 925 
5 -926 927 
5 -926 928 
5 -926 929 
5 -930 931 
5 -930 932 
5 -930 933 
5 -934 935 
5 -934 936 
5 -934 937 
5 -938 939 
5 -938 940 
5 -938 941 
5 -938 942 
5 -943 944 
5 -943 945 
5 -943 946 
5 -943 947 
5 -948 949 
5 -948 950 
5 -948 951 
5 -948 952 
5 -953 954 
5 -953 955 
5 -953 956 
5 -953 957 
5 -958 959 
5 -958 960 
5 -958 961 
5 -958 962 
5 -963 964 
5 -963 965 
5 -963 966 
5 -963 967 
5 -968 969 
5 -968 970 
5 -968 971 
5 -968 972 
5 -968 973 
5 -974 975 
5 -974 976 
5 -974 977 
5 -974 978 
5 -974 979 
5 -980 981 
5 -980 982 
5 -980 983 
5 -980 984 
5 -980 985 
5 -986 987 
5 -986 988 
5 -986 989 
5 -986 990 
5 -986 991 
5 -992 993 
5 -992 994 
5 -992 995 
5 -992 996 
5 -992 997 
5 -998 999 
5 -998 1000 
5 -998 1001 
5 -998 1002 
5 -998 1003 
5 -1004 1005 
5 -1006 1007 
5 -1008 1009 
5 -1010 1011 
5 -1012 1013 
5 -1014 1015 
5 -1014 1016 
5 -1017 1018 
5 -1017 1019 
5 -1020 1021 
5 -1020 1022 
5 -1023 1024 
5 -1023 1025 
5 -1026 1027 
5 -1026 1028 
5 -1029 1030 
5 -1029 1031 
5 -1029 1032 
5 -1033 1034 
5 -1033 1035 
5 -1033 1036 
5 -1037 1038 
5 -1037 1039 
5 -1037 1040 
5 -1041 1042 
5 -1041 1043 
5 -1041 1044 
5 -1045 1046 
5 -1045 1047 
5 -1045 1048 
5 -1049 1050 
5 -1049 1051 
5 -1049 1052 
5 -1049 1053 
5 -1054 1055 
5 -1054 1056 
5 -1054 1057 
5 -1054 1058 
5 -1059 1060 
5 -1059 1061 
5 -1059 1062 
5 -1059 1063 
5 -1064 1065 
5 -1064 1066 
5 -1064 1067 
5 -1064 1068 
5 -1069 1070 
5 -1069 1071 
5 -1069 1072 
5 -1069 1073 
5 -1074 1075 
5 -1076 1077 
5 -1078 1079 
5 -1080 1081 
5 -1082 1083 
5 -1082 1084 
5 -1085 1086 
5 -1085 1087 
5 -1088 1089 
5 -1088 1090 
5 -1091 1092 
5 -1091 1093 
5 -1094 1095 
5 -1094 1096 
5 -1094 1097 
5 -1098 1099 
5 -1098 1100 
5 -1098 1101 
5 -1102 1103 
5 -1102 1104 
5 -1102 1105 
5 -1106 1107 
5 -1106 1108 
5 -1106 1109 
5 -1110 1111 
5 -1112 1113 
5 -1114 1115 
5 -1116 1117 
5 -1116 1118 
5 -1119 1120 
5 -1119 1121 
5 -1122 1123 
5 -1122 1124 
5 -1125 1126 
5 -1127 1128 
5 -1129 1130 
5 -1131 1132 
5 -1133 1134 
5 -1135 1136 
5 -1137 1138 
5 -1139 1140 
5 -1141 1142 
5 -1143 1144 
5 -1145 1146 
5 -1147 1148 
5 -1147 1149 
5 -1150 1151 
5 -1150 1152 
5 -1153 1154 
5 -1153 1155 
5 -1156 1157 
5 -1156 1158 
5 -1159 1160 
5 -1159 1161 
5 -1162 1163 
5 -1162 1164 
5 -1165 1166 
5 -1165 1167 
5 -1168 1169 
5 -1168 1170 
5 -1171 1172 
5 -1171 1173 
5 -1174 1175 
5 -1174 1176 
5 -1174 1177 
5 -1178 1179 
5 -1178 1180 
5 -1178 1181 
5 -1182 1183 
5 -1182 1184 
5 -1182 1185 
5 -1186 1187 
5 -1186 1188 
5 -1186 1189 
5 -1190 1191 
5 -1190 1192 
5 -1190 1193 
5 -1194 1195 
5 -1194 1196 
5 -1194 1197 
5 -1198 1199 
5 -1198 1200 
5 -1198 1201 
5 -1202 1203 
5 -1202 1204 
5 -1202 1205 
5 -1206 1207 
5 -1206 1208 
5 -1206 1209 
5 -1210 1211 
5 -1210 1212 
5 -1210 1213 
5 -1210 1214 
5 -1215 1216 
5 -1215 1217 
5 -1215 1218 
5 -1215 1219 
5 -1220 1221 
5 -1220 1222 
5 -1220 1223 
5 -1220 1224 
5 -1225 1226 
5 -1225 1227 
5 -1225 1228 
5 -1225 1229 
5 -1230 1231 
5 -1230 1232 
5 -1230 1233 
5 -1230 1234 
5 -1235 1236 
5 -1235 1237 
5 -1235 1238 
5 -1235 1239 
5 -1240 1241 
5 -1240 1242 
5 -1240 1243 
5 -1240 1244 
5 -1245 1246 
5 -1245 1247 
5 -1245 1248 
5 -1245 1249 
5 -1250 1251 
5 -1250 1252 
5 -1250 1253 
5 -1250 1254 
5 -1255 1256 
5 -1257 1258 
5 -1259 1260 
5 -1261 1262 
5 -1263 1264 
5 -1265 1266 
5 -1267 1268 
5 -1269 1270 
5 -1271 1272 
5 -1271 1273 
5 -1274 1275 
5 -1274 1276 
5 -1277 1278 
5 -1277 1279 
5 -1280 1281 
5 -1280 1282 
5 -1283 1284 
5 -1283 1285 
5 -1286 1287 
5 -1286 1288 
5 -1289 1290 
5 -1289 1291 
5 -1292 1293 
5 -1292 1294 
5 -1295 1296 
5 -1295 1297 
5 -1295 1298 
5 -1299 1300 
5 -1299 1301 
5 -1299 1302 
5 -1303 1304 
5 -1303 1305 
5 -1303 1306 
5 -1307 1308 
5 -1307 1309 
5 -1307 1310 
5 -1311 1312 
5 -1311 1313 
5 -1311 1314 
5 -1315 1316 
5 -1315 1317 
5 -1315 1318 
5 -1319 1320 
5 -1319 1321 
5 -1319 1322 
5 -1323 1324 
5 -1323 1325 
5 -1323 1326 
5 -1327 1328 
5 -1329 1330 
5 -1331 1332 
5 -1333 1334 
5 -1335 1336 
5 -1337 1338 
5 -1339 1340 
5 -1341 1342 
5 -1341 1343 
5 -1344 1345 
5 -1344 1346 
5 -1347 1348 
5 -1347 1349 
5 -1350 1351 
5 -1350 1352 
5 -1353 1354 
5 -1353 1355 
5 -1356 1357 
5 -1356 1358 
5 -1359 1360 
5 -1359 1361 
5 -1362 1363 
5 -1364 1365 
5 -1366 1367 
5 -1368 1369 
5 -1370 1371 
5 -1372 1373 
5 -1374 1375 
5 -1376 1377 
5 -1378 1379 
5 -1380 1381 
5 -1382 1383 
1 1383 
2 1381 
3 1379 
4 1377 
5 1375 
